
Gurobi 7.0.1 (linux64) logging started Thu Mar  2 15:09:52 2017


Gurobi Optimizer version 7.0.1 build v7.0.1rc0 (linux64)
Copyright (c) 2016, Gurobi Optimization, Inc.

Read LP format model from file graph2.lp
Reading time = 0.00 seconds
obj: 215 rows, 185 columns, 535 nonzeros
Optimize a model with 215 rows, 185 columns and 535 nonzeros
Variable types: 0 continuous, 185 integer (168 binary)
Coefficient statistics:
  Matrix range     [1e+00, 8e+00]
  Objective range  [1e+00, 1e+00]
  Bounds range     [1e+00, 6e+00]
  RHS range        [1e+00, 7e+00]
Found heuristic solution: objective 7
Presolve removed 32 rows and 32 columns
Presolve time: 0.01s
Presolved: 183 rows, 153 columns, 455 nonzeros
Variable types: 0 continuous, 153 integer (136 binary)

Root relaxation: objective 0.000000e+00, 87 iterations, 0.00 seconds

    Nodes    |    Current Node    |     Objective Bounds      |     Work
 Expl Unexpl |  Obj  Depth IntInf | Incumbent    BestBd   Gap | It/Node Time

     0     0    0.00000    0   16    7.00000    0.00000   100%     -    0s
H    0     0                       6.0000000    0.00000   100%     -    0s
H    0     0                       5.0000000    0.00000   100%     -    0s
     0     0    0.00000    0   74    5.00000    0.00000   100%     -    0s
H    0     0                       4.0000000    0.00000   100%     -    0s
     0     0    0.00000    0   70    4.00000    0.00000   100%     -    0s
     0     0    0.00000    0   93    4.00000    0.00000   100%     -    0s
     0     0    0.00000    0   24    4.00000    0.00000   100%     -    0s
     0     2    0.00000    0   24    4.00000    0.00000   100%     -    0s

Cutting planes:
  Gomory: 1
  Cover: 42
  Implied bound: 6
  Clique: 82
  MIR: 9
  Flow cover: 6
  Mod-K: 1

Explored 178 nodes (2917 simplex iterations) in 0.09 seconds
Thread count was 4 (of 4 available processors)

Solution count 4: 4 5 6 7 
Pool objective bound 4

Optimal solution found (tolerance 1.00e-04)
Best objective 4.000000000000e+00, best bound 4.000000000000e+00, gap 0.0000%
